\ Model Cl_30_Ins_10.lp
\ LP format - for model browsing. Use MPS format to capture full model detail.
Maximize
 
Subject To
 obj1: y[0] = 0
 obj2: y[1] = 0
 obj1_Exp: - y[0] + 99 x[0] + 88 x[1] + 81 x[2] + 80 x[3] + 78 x[4]
   + 78 x[5] + 78 x[6] + 74 x[7] + 70 x[8] + 69 x[9] + 69 x[10] + 56 x[11]
   + 51 x[12] + 42 x[13] + 38 x[14] + 29 x[15] + 25 x[16] + 25 x[17]
   + 24 x[18] + 21 x[19] + 20 x[20] + 20 x[21] + 20 x[22] + 15 x[23]
   + 14 x[24] + 13 x[25] + 10 x[26] + 9 x[27] + 7 x[28] + x[29] = 0
 obj2_Exp: - y[1] + 94 x[0] + 14 x[1] + 70 x[2] + 21 x[3] + 91 x[4]
   + 79 x[5] + 15 x[6] + 32 x[7] + 84 x[8] + 7 x[9] + 13 x[10] + 36 x[11]
   + 16 x[12] + 52 x[13] + 66 x[14] + 88 x[15] + 71 x[16] + 84 x[17]
   + 99 x[18] + 87 x[19] + 17 x[20] + 73 x[21] + 88 x[22] + 84 x[23]
   + 17 x[24] + 31 x[25] + 15 x[26] + 89 x[27] + 95 x[28] + 69 x[29] = 0
 Budget: 109 x[0] + 98 x[1] + 91 x[2] + 90 x[3] + 88 x[4] + 88 x[5]
   + 88 x[6] + 84 x[7] + 80 x[8] + 79 x[9] + 79 x[10] + 66 x[11] + 61 x[12]
   + 52 x[13] + 48 x[14] + 39 x[15] + 35 x[16] + 35 x[17] + 34 x[18]
   + 31 x[19] + 30 x[20] + 30 x[21] + 30 x[22] + 25 x[23] + 24 x[24]
   + 23 x[25] + 20 x[26] + 19 x[27] + 17 x[28] + 11 x[29] <= 766
Bounds
Binaries
 x[0] x[1] x[2] x[3] x[4] x[5] x[6] x[7] x[8] x[9] x[10] x[11] x[12] x[13]
 x[14] x[15] x[16] x[17] x[18] x[19] x[20] x[21] x[22] x[23] x[24] x[25]
 x[26] x[27] x[28] x[29]
Generals
 y[0] y[1]
End
